(set-logic HORN)
(declare-fun inv ((_ BitVec 32) (_ BitVec 32) (_ BitVec 32) ) Bool)
(assert (forall ((i (_ BitVec 32)) (c (_ BitVec 32)) (n (_ BitVec 32))) 
       (=> ( and ( = i (_ bv0 32) ) ( = c (_ bv0 32) ) ( bvugt n (_ bv0 32) ) ) (inv i c n))))
(assert (forall ((i (_ BitVec 32)) (c (_ BitVec 32)) (n (_ BitVec 32)) (i! (_ BitVec 32)) (c! (_ BitVec 32)) (n! (_ BitVec 32))) 
       (=> (and (inv i c n) ( or ( and ( bvuge i n ) ( = i! i ) ( = c! c ) ( = n! n ) ) ( and ( bvult i n ) ( = i! ( bvadd i (_ bv1 32) ) ) ( = c! ( bvadd c i ) ) ( = n! n ) ) )) (inv i! c! n!))))
(assert (forall ((i (_ BitVec 32)) (c (_ BitVec 32)) (n (_ BitVec 32))) 
       (=> (inv i c n) ( => ( bvuge i n ) ( bvuge c (_ bv0 32) ) ))))
(check-sat)
